Minimize
  - 6 y_1 - 5 y_2 - 6 y_3 - 5 y_4 - 5 y_5 - 2 y_6 - 2 y_7 - 3 y_8 - 2 y_9
   - 3 y_10 - 5 y_11 - 5 y_12 - 4 y_13 - 4 y_14 - 6 y_15 - 4 y_16 - 2 y_17
   - y_18 - 4 y_19 + 59 x_0_1 + 16 x_0_7 + 28 x_0_10 + 46 x_0_12 + 91 x_1_5
   + 90 x_1_8 + 33 x_1_10 + 72 x_1_18 + 91 x_1_19 + 95 x_2_3 + 74 x_2_6
   + 31 x_2_14 + 67 x_2_18 + 71 x_3_4 + 79 x_3_11 + 55 x_3_17 + 52 x_3_18
   + 21 x_4_8 + 93 x_4_11 + 73 x_4_14 + 34 x_4_19 + 57 x_5_7 + 57 x_5_8
   + 77 x_5_11 + 38 x_5_14 + 46 x_5_17 + 25 x_6_7 + 68 x_6_13 + 55 x_6_16
   + 39 x_7_10 + 61 x_7_16 + 11 x_7_18 + 62 x_8_10 + 73 x_8_13 + 71 x_8_14
   + 73 x_8_16 + 21 x_8_18 + 44 x_8_19 + 29 x_9_10 + 47 x_9_15 + 20 x_10_11
   + 51 x_10_17 + 59 x_10_19 + 18 x_11_13 + 63 x_11_15 + 62 x_11_18
   + 76 x_12_13 + 53 x_12_17 + 51 x_12_18 + 45 x_13_15 + 64 x_13_16
   + 58 x_14_17 + 52 x_14_18 + 102 x_15_16 + 55 x_16_18 + 9 x_17_18
   + 36 x_18_19 + 74 Constant
Subject To
 c_0: y_6 = 1
 c_1_0: y_0 >= 1
 c_1_1: y_1 >= 1
 c_1_2: y_2 >= 1
 c_1_3: y_3 >= 1
 c_1_4: y_4 >= 1
 c_1_5: y_5 >= 1
 c_1_6: y_6 + y_17 >= 1
 c_1_7: y_7 >= 1
 c_1_8: y_8 >= 1
 c_1_9: y_9 >= 1
 c_1_10: y_10 >= 1
 c_1_11: y_11 >= 1
 c_1_12: y_12 >= 1
 c_1_13: y_13 >= 1
 c_1_14: y_14 + y_16 >= 1
 c_1_15: y_15 >= 1
 c_1_16: y_14 + y_16 >= 1
 c_1_17: y_6 + y_17 + y_18 >= 1
 c_1_18: y_17 + y_18 >= 1
 c_1_19: y_19 >= 1
 c_2_0: - 2 y_0 + x_0_1 + x_0_7 + x_0_10 + x_0_12 = 0
 c_2_1: - 2 y_1 + x_0_1 + x_1_5 + x_1_8 + x_1_10 + x_1_18 + x_1_19 = 0
 c_2_2: - 2 y_2 + x_2_3 + x_2_6 + x_2_14 + x_2_18 = 0
 c_2_3: - 2 y_3 + x_2_3 + x_3_4 + x_3_11 + x_3_17 + x_3_18 = 0
 c_2_4: - 2 y_4 + x_3_4 + x_4_8 + x_4_11 + x_4_14 + x_4_19 = 0
 c_2_5: - 2 y_5 + x_1_5 + x_5_7 + x_5_8 + x_5_11 + x_5_14 + x_5_17 = 0
 c_2_6: - 2 y_6 + x_2_6 + x_6_7 + x_6_13 + x_6_16 = 0
 c_2_7: - 2 y_7 + x_0_7 + x_5_7 + x_6_7 + x_7_10 + x_7_16 + x_7_18 = 0
 c_2_8: - 2 y_8 + x_1_8 + x_4_8 + x_5_8 + x_8_10 + x_8_13 + x_8_14 + x_8_16
   + x_8_18 + x_8_19 = 0
 c_2_9: - 2 y_9 + x_9_10 + x_9_15 = 0
 c_2_10: - 2 y_10 + x_0_10 + x_1_10 + x_7_10 + x_8_10 + x_9_10 + x_10_11
   + x_10_17 + x_10_19 = 0
 c_2_11: - 2 y_11 + x_3_11 + x_4_11 + x_5_11 + x_10_11 + x_11_13 + x_11_15
   + x_11_18 = 0
 c_2_12: - 2 y_12 + x_0_12 + x_12_13 + x_12_17 + x_12_18 = 0
 c_2_13: - 2 y_13 + x_6_13 + x_8_13 + x_11_13 + x_12_13 + x_13_15 + x_13_16
   = 0
 c_2_14: - 2 y_14 + x_2_14 + x_4_14 + x_5_14 + x_8_14 + x_14_17 + x_14_18
   = 0
 c_2_15: - 2 y_15 + x_9_15 + x_11_15 + x_13_15 + x_15_16 = 0
 c_2_16: - 2 y_16 + x_6_16 + x_7_16 + x_8_16 + x_13_16 + x_15_16 + x_16_18
   = 0
 c_2_17: - 2 y_17 + x_3_17 + x_5_17 + x_10_17 + x_12_17 + x_14_17 + x_17_18
   = 0
 c_2_18: - 2 y_18 + x_1_18 + x_2_18 + x_3_18 + x_7_18 + x_8_18 + x_11_18
   + x_12_18 + x_14_18 + x_16_18 + x_17_18 + x_18_19 = 0
 c_2_19: - 2 y_19 + x_1_19 + x_4_19 + x_8_19 + x_10_19 + x_18_19 = 0
Bounds
 Constant = 1
Binaries
 y_0 y_1 y_2 y_3 y_4 y_5 y_6 y_7 y_8 y_9 y_10 y_11 y_12 y_13 y_14 y_15 y_16
 y_17 y_18 y_19 x_0_1 x_0_7 x_0_10 x_0_12 x_1_5 x_1_8 x_1_10 x_1_18 x_1_19
 x_2_3 x_2_6 x_2_14 x_2_18 x_3_4 x_3_11 x_3_17 x_3_18 x_4_8 x_4_11 x_4_14
 x_4_19 x_5_7 x_5_8 x_5_11 x_5_14 x_5_17 x_6_7 x_6_13 x_6_16 x_7_10 x_7_16
 x_7_18 x_8_10 x_8_13 x_8_14 x_8_16 x_8_18 x_8_19 x_9_10 x_9_15 x_10_11
 x_10_17 x_10_19 x_11_13 x_11_15 x_11_18 x_12_13 x_12_17 x_12_18 x_13_15
 x_13_16 x_14_17 x_14_18 x_15_16 x_16_18 x_17_18 x_18_19
End
